50
13719

483 137
559 492
61 903
749 520
583 719
746 692
835 191
899 789
778 572
900 188
180 32
142 124
567 57
907 267
348 244
37 472
708 386
458 384
902 917
797 301
600 143
841 638
70 748
315 636
385 352
457 977
156 104
400 429
798 578
173 201
848 90
796 938
491 742
429 776
381 812
149 187
752 984
204 877
71 21
484 218
727 296
272 172
845 495
9 896
518 643
126 537
646 837
452 642
653 904
465 871
